WARNING: for repeatability, setting FPU to use double precision
============================[ Problem Statistics ]=============================
|                                                                             |
|  Number of variables:           100                                         |
|  Number of clauses:             449                                         |
|  Parse time:                   0.00 s                                       |
|  Eliminated clauses:           0.00 Mb                                      |
|  Simplification time:          0.00 s                                       |
|                                                                             |
============================[ Search Statistics ]==============================
| Conflicts |          ORIGINAL         |          LEARNT          | Progress |
|           |    Vars  Clauses Literals |    Limit  Clauses Lit/Cl |          |
===============================================================================
|       100 |      99      442     1326 |      162      100      8 |  0.010 % |
|       250 |      99      442     1326 |      178      167      6 |  0.010 % |
===============================================================================
restarts              : 3
conflicts             : 383            (92467 /sec)
decisions             : 465            (0.00 % random) (112265 /sec)
propagations          : 9796           (2365041 /sec)
conflict literals     : 2467           (18.69 % deleted)
Memory used           : 13.00 MB
CPU time              : 0.004142 s

SATISFIABLE
